100
14 4
5 0
14 1
25 4
24 1
36 4
30 3
32 4
21 2
21 1
13 3
42 3
1 2
31 3
26 4
3 0
9 4
31 4
15 4
18 3
8 0
36 0
1 3
0 4
14 2
2 3
3 2
5 3
2 0
23 2
24 0
1 0
37 4
20 2
31 1
30 4
10 4
34 3
20 1
35 4
35 2
29 1
4 0
8 4
20 0
34 1
17 4
21 4
16 4
7 0
13 1
25 0
35 0
4 4
3 4
8 3
21 0
34 0
29 2
18 2
28 3
41 4
43 4
5 4
31 0
26 0
42 4
39 3
44 0
44 2
32 3
6 4
33 0
43 3
26 1
13 4
7 4
0 0
33 1
23 0
1 1
22 1
40 0
42 0
39 2
42 1
9 0
33 4
18 0
6 3
18 4
27 0
22 4
15 0
38 4
21 3
10 1
37 0
9 3
11 0

